! PBE def2-SVP Opt Freq RIJCOSX

* xyz 0 1
C     -1.463568    0.623649    0.203765
C     -0.792923   -0.604928   -0.391231
C      0.689176   -0.722130   -0.034390
C      1.542944    0.391688   -0.620629
H     -1.335059    0.654144    1.290329
H     -2.537149    0.605852   -0.009874
H     -1.057110    1.546905   -0.219383
H     -1.311236   -1.498130   -0.022535
H     -0.914851   -0.594842   -1.480616
H      0.810558   -0.739210    1.054968
H      1.062600   -1.682263   -0.410014
H      1.284656    1.363723   -0.190395
H      1.421369    0.449857   -1.706862
H      2.600593    0.205684   -0.407749
*
