! PBE def2-SVP Opt Freq RIJCOSX

* xyz 0 1
C      1.072540   -0.494205   -0.547981
C      0.177546    0.586268    0.035056
C     -1.206528    0.051772    0.362200
H      1.200207   -1.321099    0.157964
H      0.650091   -0.895820   -1.474615
H      2.062115   -0.085387   -0.774934
H      0.637209    0.989307    0.944274
H      0.090088    1.412273   -0.679419
H     -1.150896   -0.757865    1.096912
H     -1.831363    0.847341    0.779988
H     -1.701010   -0.332586   -0.535667
*
