! PBE def2-SVP Opt Freq RIJCOSX

* xyz 0 1
C      0.755760   -0.019383    0.005611
C     -0.755760    0.019382   -0.005611
H      1.136959    0.144636    1.017938
H      1.117982   -0.990111   -0.345816
H      1.165042    0.757765   -0.646730
H     -1.136959   -0.144643   -1.017937
H     -1.165043   -0.757761    0.646736
H     -1.117982    0.990114    0.345809
*
